p cnf 212 328
16 17 30 51 52 0
16 17 30 51 -52 0
16 17 30 -51 52 0
16 17 30 -51 -52 0
-17 22 30 53 54 0
-17 22 30 53 -54 0
-17 22 30 -53 54 0
-17 22 30 -53 -54 0
-17 -22 30 55 56 0
-17 -22 30 55 -56 0
-17 -22 30 -55 56 0
-17 -22 30 -55 -56 0
16 -30 47 57 58 0
16 -30 47 57 -58 0
16 -30 47 -57 58 0
16 -30 47 -57 -58 0
16 -30 -47 59 60 0
16 -30 -47 59 -60 0
16 -30 -47 -59 60 0
16 -30 -47 -59 -60 0
-16 -21 31 61 62 0
-16 -21 31 61 -62 0
-16 -21 31 -61 62 0
-16 -21 31 -61 -62 0
-16 -21 -31 63 64 0
-16 -21 -31 63 -64 0
-16 -21 -31 -63 64 0
-16 -21 -31 -63 -64 0
-16 21 -28 65 66 0
-16 21 -28 65 -66 0
-16 21 -28 -65 66 0
-16 21 -28 -65 -66 0
-13 21 28 67 68 0
-13 21 28 67 -68 0
-13 21 28 -67 68 0
-13 21 28 -67 -68 0
13 -16 18 69 70 0
13 -16 18 69 -70 0
13 -16 18 -69 70 0
13 -16 18 -69 -70 0
13 -18 -38 71 72 0
13 -18 -38 71 -72 0
13 -18 -38 -71 72 0
13 -18 -38 -71 -72 0
13 -18 -31 73 74 0
13 -18 -31 73 -74 0
13 -18 -31 -73 74 0
13 -18 -31 -73 -74 0
31 38 44 75 76 0
31 38 44 75 -76 0
31 38 44 -75 76 0
31 38 44 -75 -76 0
-8 31 -44 77 78 0
-8 31 -44 77 -78 0
-8 31 -44 -77 78 0
-8 31 -44 -77 -78 0
8 -12 -44 79 80 0
8 -12 -44 79 -80 0
8 -12 -44 -79 80 0
8 -12 -44 -79 -80 0
8 12 -27 81 82 0
8 12 -27 81 -82 0
8 12 -27 -81 82 0
8 12 -27 -81 -82 0
12 27 40 83 84 0
12 27 40 83 -84 0
12 27 40 -83 84 0
12 27 40 -83 -84 0
-4 27 -40 85 86 0
-4 27 -40 85 -86 0
-4 27 -40 -85 86 0
-4 27 -40 -85 -86 0
12 23 -40 87 88 0
12 23 -40 87 -88 0
12 23 -40 -87 88 0
12 23 -40 -87 -88 0
-3 4 -23 89 90 0
-3 4 -23 89 -90 0
-3 4 -23 -89 90 0
-3 4 -23 -89 -90 0
3 -23 -49 91 92 0
3 -23 -49 91 -92 0
3 -23 -49 -91 92 0
3 -23 -49 -91 -92 0
3 -13 -49 93 94 0
3 -13 -49 93 -94 0
3 -13 -49 -93 94 0
3 -13 -49 -93 -94 0
-23 -26 49 95 96 0
-23 -26 49 95 -96 0
-23 -26 49 -95 96 0
-23 -26 49 -95 -96 0
12 -34 49 97 98 0
12 -34 49 97 -98 0
12 -34 49 -97 98 0
12 -34 49 -97 -98 0
-12 26 -34 99 100 0
-12 26 -34 99 -100 0
-12 26 -34 -99 100 0
-12 26 -34 -99 -100 0
19 34 36 101 102 0
19 34 36 101 -102 0
19 34 36 -101 102 0
19 34 36 -101 -102 0
-19 26 36 103 104 0
-19 26 36 103 -104 0
-19 26 36 -103 104 0
-19 26 36 -103 -104 0
-30 34 -36 105 106 0
-30 34 -36 105 -106 0
-30 34 -36 -105 106 0
-30 34 -36 -105 -106 0
24 34 -36 107 108 0
24 34 -36 107 -108 0
24 34 -36 -107 108 0
24 34 -36 -107 -108 0
-24 -36 43 109 110 0
-24 -36 43 109 -110 0
-24 -36 43 -109 110 0
-24 -36 43 -109 -110 0
6 42 -43 111 112 0
6 42 -43 111 -112 0
6 42 -43 -111 112 0
6 42 -43 -111 -112 0
-24 42 -43 113 114 0
-24 42 -43 113 -114 0
-24 42 -43 -113 114 0
-24 42 -43 -113 -114 0
-5 -24 -42 115 116 0
-5 -24 -42 115 -116 0
-5 -24 -42 -115 116 0
-5 -24 -42 -115 -116 0
5 20 -42 117 118 0
5 20 -42 117 -118 0
5 20 -42 -117 118 0
5 20 -42 -117 -118 0
5 -7 -20 119 120 0
5 -7 -20 119 -120 0
5 -7 -20 -119 120 0
5 -7 -20 -119 -120 0
4 7 10 121 122 0
4 7 10 121 -122 0
4 7 10 -121 122 0
4 7 10 -121 -122 0
-4 10 -20 123 124 0
-4 10 -20 123 -124 0
-4 10 -20 -123 124 0
-4 10 -20 -123 -124 0
7 -10 -41 125 126 0
7 -10 -41 125 -126 0
7 -10 -41 -125 126 0
7 -10 -41 -125 -126 0
-10 41 46 127 128 0
-10 41 46 127 -128 0
-10 41 46 -127 128 0
-10 41 46 -127 -128 0
-33 41 -46 129 130 0
-33 41 -46 129 -130 0
-33 41 -46 -129 130 0
-33 41 -46 -129 -130 0
33 -37 -46 131 132 0
33 -37 -46 131 -132 0
33 -37 -46 -131 132 0
33 -37 -46 -131 -132 0
32 33 37 133 134 0
32 33 37 133 -134 0
32 33 37 -133 134 0
32 33 37 -133 -134 0
6 -32 37 135 136 0
6 -32 37 135 -136 0
6 -32 37 -135 136 0
6 -32 37 -135 -136 0
-6 25 -32 137 138 0
-6 25 -32 137 -138 0
-6 25 -32 -137 138 0
-6 25 -32 -137 -138 0
-6 -25 -48 139 140 0
-6 -25 -48 139 -140 0
-6 -25 -48 -139 140 0
-6 -25 -48 -139 -140 0
-9 28 48 141 142 0
-9 28 48 141 -142 0
-9 28 48 -141 142 0
-9 28 48 -141 -142 0
-9 -25 -28 143 144 0
-9 -25 -28 143 -144 0
-9 -25 -28 -143 144 0
-9 -25 -28 -143 -144 0
19 -25 48 145 146 0
19 -25 48 145 -146 0
19 -25 48 -145 146 0
19 -25 48 -145 -146 0
2 9 -19 147 148 0
2 9 -19 147 -148 0
2 9 -19 -147 148 0
2 9 -19 -147 -148 0
-2 -19 35 149 150 0
-2 -19 35 149 -150 0
-2 -19 35 -149 150 0
-2 -19 35 -149 -150 0
-2 22 -35 151 152 0
-2 22 -35 151 -152 0
-2 22 -35 -151 152 0
-2 22 -35 -151 -152 0
-22 -35 50 153 154 0
-22 -35 50 153 -154 0
-22 -35 50 -153 154 0
-22 -35 50 -153 -154 0
-17 -35 -50 155 156 0
-17 -35 -50 155 -156 0
-17 -35 -50 -155 156 0
-17 -35 -50 -155 -156 0
-29 -35 -50 157 158 0
-29 -35 -50 157 -158 0
-29 -35 -50 -157 158 0
-29 -35 -50 -157 -158 0
-1 29 -50 159 160 0
-1 29 -50 159 -160 0
-1 29 -50 -159 160 0
-1 29 -50 -159 -160 0
1 11 29 161 162 0
1 11 29 161 -162 0
1 11 29 -161 162 0
1 11 29 -161 -162 0
-11 17 -45 163 164 0
-11 17 -45 163 -164 0
-11 17 -45 -163 164 0
-11 17 -45 -163 -164 0
-11 39 45 165 166 0
-11 39 45 165 -166 0
-11 39 45 -165 166 0
-11 39 45 -165 -166 0
-26 39 45 167 168 0
-26 39 45 167 -168 0
-26 39 45 -167 168 0
-26 39 45 -167 -168 0
-3 -26 45 169 170 0
-3 -26 45 169 -170 0
-3 -26 45 -169 170 0
-3 -26 45 -169 -170 0
-11 15 -39 171 172 0
-11 15 -39 171 -172 0
-11 15 -39 -171 172 0
-11 15 -39 -171 -172 0
14 -15 -39 173 174 0
14 -15 -39 173 -174 0
14 -15 -39 -173 174 0
14 -15 -39 -173 -174 0
14 -15 -45 175 176 0
14 -15 -45 175 -176 0
14 -15 -45 -175 176 0
14 -15 -45 -175 -176 0
14 -15 -27 177 178 0
14 -15 -27 177 -178 0
14 -15 -27 -177 178 0
14 -15 -27 -177 -178 0
-14 -15 47 179 180 0
-14 -15 47 179 -180 0
-14 -15 47 -179 180 0
-14 -15 47 -179 -180 0
17 40 181 182 183 0
17 40 181 182 -183 0
17 40 181 -182 183 0
17 40 181 -182 -183 0
17 40 -181 182 183 0
17 40 -181 182 -183 0
17 40 -181 -182 183 0
17 40 -181 -182 -183 0
1 -29 -31 184 185 0
1 -29 -31 184 -185 0
1 -29 -31 -184 185 0
1 -29 -31 -184 -185 0
-7 32 38 186 187 0
-7 32 38 186 -187 0
-7 32 38 -186 187 0
-7 32 38 -186 -187 0
-14 -33 -47 188 189 0
-14 -33 -47 188 -189 0
-14 -33 -47 -188 189 0
-14 -33 -47 -188 -189 0
-1 2 -8 190 191 0
-1 2 -8 190 -191 0
-1 2 -8 -190 191 0
-1 2 -8 -190 -191 0
35 43 44 192 193 0
35 43 44 192 -193 0
35 43 44 -192 193 0
35 43 44 -192 -193 0
21 24 194 195 196 0
21 24 194 195 -196 0
21 24 194 -195 196 0
21 24 194 -195 -196 0
21 24 -194 195 196 0
21 24 -194 195 -196 0
21 24 -194 -195 196 0
21 24 -194 -195 -196 0
20 29 -48 197 198 0
20 29 -48 197 -198 0
20 29 -48 -197 198 0
20 29 -48 -197 -198 0
23 35 -37 199 200 0
23 35 -37 199 -200 0
23 35 -37 -199 200 0
23 35 -37 -199 -200 0
2 18 -33 201 202 0
2 18 -33 201 -202 0
2 18 -33 -201 202 0
2 18 -33 -201 -202 0
15 25 -45 203 204 0
15 25 -45 203 -204 0
15 25 -45 -203 204 0
15 25 -45 -203 -204 0
9 14 -38 205 206 0
9 14 -38 205 -206 0
9 14 -38 -205 206 0
9 14 -38 -205 -206 0
-5 11 50 207 208 0
-5 11 50 207 -208 0
-5 11 50 -207 208 0
-5 11 50 -207 -208 0
-3 -13 46 209 210 0
-3 -13 46 209 -210 0
-3 -13 46 -209 210 0
-3 -13 46 -209 -210 0
-13 -41 43 211 212 0
-13 -41 43 211 -212 0
-13 -41 43 -211 212 0
-13 -41 43 -211 -212 0
